c n orig vars 164
p cnf 166 1415
1 2 -165 0
3 4 -165 0
5 6 -165 0
7 8 -165 0
9 10 -165 0
11 12 -165 0
13 14 -165 0
15 16 -165 0
17 18 -165 0
19 20 -165 0
21 22 -165 0
23 24 -165 0
25 26 -165 0
27 28 -165 0
29 30 -165 0
31 32 -165 0
-33 -44 -166 0
-34 -55 -166 0
-35 -66 -166 0
-36 -77 -166 0
-37 -88 -166 0
-38 -99 -166 0
-39 -110 -166 0
-40 -121 -166 0
-41 -132 -166 0
-42 -143 -166 0
-43 -154 -166 0
-45 -56 -166 0
-46 -67 -166 0
-47 -78 -166 0
-48 -89 -166 0
-49 -100 -166 0
-50 -111 -166 0
-51 -122 -166 0
-52 -133 -166 0
-53 -144 -166 0
-54 -155 -166 0
-57 -68 -166 0
-58 -79 -166 0
-59 -90 -166 0
-60 -101 -166 0
-61 -112 -166 0
-62 -123 -166 0
-63 -134 -166 0
-64 -145 -166 0
-65 -156 -166 0
-69 -80 -166 0
-70 -91 -166 0
-71 -102 -166 0
-72 -113 -166 0
-73 -124 -166 0
-74 -135 -166 0
-75 -146 -166 0
-76 -157 -166 0
-81 -92 -166 0
-82 -103 -166 0
-83 -114 -166 0
-84 -125 -166 0
-85 -136 -166 0
-86 -147 -166 0
-87 -158 -166 0
-93 -104 -166 0
-94 -115 -166 0
-95 -126 -166 0
-96 -137 -166 0
-97 -148 -166 0
-98 -159 -166 0
-105 -116 -166 0
-106 -127 -166 0
-107 -138 -166 0
-108 -149 -166 0
-109 -160 -166 0
-117 -128 -166 0
-118 -139 -166 0
-119 -150 -166 0
-120 -161 -166 0
-129 -140 -166 0
-130 -151 -166 0
-131 -162 -166 0
-141 -152 -166 0
-142 -163 -166 0
-153 -164 -166 0
-33 -45 34 -166 0
-33 -46 35 -166 0
-33 -47 36 -166 0
-33 -48 37 -166 0
-33 -49 38 -166 0
-33 -50 39 -166 0
-33 -51 40 -166 0
-33 -52 41 -166 0
-33 -53 42 -166 0
-33 -54 43 -166 0
-34 -56 33 -166 0
-34 -57 35 -166 0
-34 -58 36 -166 0
-34 -59 37 -166 0
-34 -60 38 -166 0
-34 -61 39 -166 0
-34 -62 40 -166 0
-34 -63 41 -166 0
-34 -64 42 -166 0
-34 -65 43 -166 0
-35 -67 33 -166 0
-35 -68 34 -166 0
-35 -69 36 -166 0
-35 -70 37 -166 0
-35 -71 38 -166 0
-35 -72 39 -166 0
-35 -73 40 -166 0
-35 -74 41 -166 0
-35 -75 42 -166 0
-35 -76 43 -166 0
-36 -78 33 -166 0
-36 -79 34 -166 0
-36 -80 35 -166 0
-36 -81 37 -166 0
-36 -82 38 -166 0
-36 -83 39 -166 0
-36 -84 40 -166 0
-36 -85 41 -166 0
-36 -86 42 -166 0
-36 -87 43 -166 0
-37 -89 33 -166 0
-37 -90 34 -166 0
-37 -91 35 -166 0
-37 -92 36 -166 0
-37 -93 38 -166 0
-37 -94 39 -166 0
-37 -95 40 -166 0
-37 -96 41 -166 0
-37 -97 42 -166 0
-37 -98 43 -166 0
-38 -100 33 -166 0
-38 -101 34 -166 0
-38 -102 35 -166 0
-38 -103 36 -166 0
-38 -104 37 -166 0
-38 -105 39 -166 0
-38 -106 40 -166 0
-38 -107 41 -166 0
-38 -108 42 -166 0
-38 -109 43 -166 0
-39 -111 33 -166 0
-39 -112 34 -166 0
-39 -113 35 -166 0
-39 -114 36 -166 0
-39 -115 37 -166 0
-39 -116 38 -166 0
-39 -117 40 -166 0
-39 -118 41 -166 0
-39 -119 42 -166 0
-39 -120 43 -166 0
-40 -122 33 -166 0
-40 -123 34 -166 0
-40 -124 35 -166 0
-40 -125 36 -166 0
-40 -126 37 -166 0
-40 -127 38 -166 0
-40 -128 39 -166 0
-40 -129 41 -166 0
-40 -130 42 -166 0
-40 -131 43 -166 0
-41 -133 33 -166 0
-41 -134 34 -166 0
-41 -135 35 -166 0
-41 -136 36 -166 0
-41 -137 37 -166 0
-41 -138 38 -166 0
-41 -139 39 -166 0
-41 -140 40 -166 0
-41 -141 42 -166 0
-41 -142 43 -166 0
-42 -144 33 -166 0
-42 -145 34 -166 0
-42 -146 35 -166 0
-42 -147 36 -166 0
-42 -148 37 -166 0
-42 -149 38 -166 0
-42 -150 39 -166 0
-42 -151 40 -166 0
-42 -152 41 -166 0
-42 -153 43 -166 0
-43 -155 33 -166 0
-43 -156 34 -166 0
-43 -157 35 -166 0
-43 -158 36 -166 0
-43 -159 37 -166 0
-43 -160 38 -166 0
-43 -161 39 -166 0
-43 -162 40 -166 0
-43 -163 41 -166 0
-43 -164 42 -166 0
-44 -34 45 -166 0
-44 -35 46 -166 0
-44 -36 47 -166 0
-44 -37 48 -166 0
-44 -38 49 -166 0
-44 -39 50 -166 0
-44 -40 51 -166 0
-44 -41 52 -166 0
-44 -42 53 -166 0
-44 -43 54 -166 0
-45 -55 44 -166 0
-45 -57 46 -166 0
-45 -58 47 -166 0
-45 -59 48 -166 0
-45 -60 49 -166 0
-45 -61 50 -166 0
-45 -62 51 -166 0
-45 -63 52 -166 0
-45 -64 53 -166 0
-45 -65 54 -166 0
-46 -66 44 -166 0
-46 -68 45 -166 0
-46 -69 47 -166 0
-46 -70 48 -166 0
-46 -71 49 -166 0
-46 -72 50 -166 0
-46 -73 51 -166 0
-46 -74 52 -166 0
-46 -75 53 -166 0
-46 -76 54 -166 0
-47 -77 44 -166 0
-47 -79 45 -166 0
-47 -80 46 -166 0
-47 -81 48 -166 0
-47 -82 49 -166 0
-47 -83 50 -166 0
-47 -84 51 -166 0
-47 -85 52 -166 0
-47 -86 53 -166 0
-47 -87 54 -166 0
-48 -88 44 -166 0
-48 -90 45 -166 0
-48 -91 46 -166 0
-48 -92 47 -166 0
-48 -93 49 -166 0
-48 -94 50 -166 0
-48 -95 51 -166 0
-48 -96 52 -166 0
-48 -97 53 -166 0
-48 -98 54 -166 0
-49 -99 44 -166 0
-49 -101 45 -166 0
-49 -102 46 -166 0
-49 -103 47 -166 0
-49 -104 48 -166 0
-49 -105 50 -166 0
-49 -106 51 -166 0
-49 -107 52 -166 0
-49 -108 53 -166 0
-49 -109 54 -166 0
-50 -110 44 -166 0
-50 -112 45 -166 0
-50 -113 46 -166 0
-50 -114 47 -166 0
-50 -115 48 -166 0
-50 -116 49 -166 0
-50 -117 51 -166 0
-50 -118 52 -166 0
-50 -119 53 -166 0
-50 -120 54 -166 0
-51 -121 44 -166 0
-51 -123 45 -166 0
-51 -124 46 -166 0
-51 -125 47 -166 0
-51 -126 48 -166 0
-51 -127 49 -166 0
-51 -128 50 -166 0
-51 -129 52 -166 0
-51 -130 53 -166 0
-51 -131 54 -166 0
-52 -132 44 -166 0
-52 -134 45 -166 0
-52 -135 46 -166 0
-52 -136 47 -166 0
-52 -137 48 -166 0
-52 -138 49 -166 0
-52 -139 50 -166 0
-52 -140 51 -166 0
-52 -141 53 -166 0
-52 -142 54 -166 0
-53 -143 44 -166 0
-53 -145 45 -166 0
-53 -146 46 -166 0
-53 -147 47 -166 0
-53 -148 48 -166 0
-53 -149 49 -166 0
-53 -150 50 -166 0
-53 -151 51 -166 0
-53 -152 52 -166 0
-53 -153 54 -166 0
-54 -154 44 -166 0
-54 -156 45 -166 0
-54 -157 46 -166 0
-54 -158 47 -166 0
-54 -159 48 -166 0
-54 -160 49 -166 0
-54 -161 50 -166 0
-54 -162 51 -166 0
-54 -163 52 -166 0
-54 -164 53 -166 0
-55 -33 56 -166 0
-55 -35 57 -166 0
-55 -36 58 -166 0
-55 -37 59 -166 0
-55 -38 60 -166 0
-55 -39 61 -166 0
-55 -40 62 -166 0
-55 -41 63 -166 0
-55 -42 64 -166 0
-55 -43 65 -166 0
-56 -44 55 -166 0
-56 -46 57 -166 0
-56 -47 58 -166 0
-56 -48 59 -166 0
-56 -49 60 -166 0
-56 -50 61 -166 0
-56 -51 62 -166 0
-56 -52 63 -166 0
-56 -53 64 -166 0
-56 -54 65 -166 0
-57 -66 55 -166 0
-57 -67 56 -166 0
-57 -69 58 -166 0
-57 -70 59 -166 0
-57 -71 60 -166 0
-57 -72 61 -166 0
-57 -73 62 -166 0
-57 -74 63 -166 0
-57 -75 64 -166 0
-57 -76 65 -166 0
-58 -77 55 -166 0
-58 -78 56 -166 0
-58 -80 57 -166 0
-58 -81 59 -166 0
-58 -82 60 -166 0
-58 -83 61 -166 0
-58 -84 62 -166 0
-58 -85 63 -166 0
-58 -86 64 -166 0
-58 -87 65 -166 0
-59 -88 55 -166 0
-59 -89 56 -166 0
-59 -91 57 -166 0
-59 -92 58 -166 0
-59 -93 60 -166 0
-59 -94 61 -166 0
-59 -95 62 -166 0
-59 -96 63 -166 0
-59 -97 64 -166 0
-59 -98 65 -166 0
-60 -99 55 -166 0
-60 -100 56 -166 0
-60 -102 57 -166 0
-60 -103 58 -166 0
-60 -104 59 -166 0
-60 -105 61 -166 0
-60 -106 62 -166 0
-60 -107 63 -166 0
-60 -108 64 -166 0
-60 -109 65 -166 0
-61 -110 55 -166 0
-61 -111 56 -166 0
-61 -113 57 -166 0
-61 -114 58 -166 0
-61 -115 59 -166 0
-61 -116 60 -166 0
-61 -117 62 -166 0
-61 -118 63 -166 0
-61 -119 64 -166 0
-61 -120 65 -166 0
-62 -121 55 -166 0
-62 -122 56 -166 0
-62 -124 57 -166 0
-62 -125 58 -166 0
-62 -126 59 -166 0
-62 -127 60 -166 0
-62 -128 61 -166 0
-62 -129 63 -166 0
-62 -130 64 -166 0
-62 -131 65 -166 0
-63 -132 55 -166 0
-63 -133 56 -166 0
-63 -135 57 -166 0
-63 -136 58 -166 0
-63 -137 59 -166 0
-63 -138 60 -166 0
-63 -139 61 -166 0
-63 -140 62 -166 0
-63 -141 64 -166 0
-63 -142 65 -166 0
-64 -143 55 -166 0
-64 -144 56 -166 0
-64 -146 57 -166 0
-64 -147 58 -166 0
-64 -148 59 -166 0
-64 -149 60 -166 0
-64 -150 61 -166 0
-64 -151 62 -166 0
-64 -152 63 -166 0
-64 -153 65 -166 0
-65 -154 55 -166 0
-65 -155 56 -166 0
-65 -157 57 -166 0
-65 -158 58 -166 0
-65 -159 59 -166 0
-65 -160 60 -166 0
-65 -161 61 -166 0
-65 -162 62 -166 0
-65 -163 63 -166 0
-65 -164 64 -166 0
-66 -33 67 -166 0
-66 -34 68 -166 0
-66 -36 69 -166 0
-66 -37 70 -166 0
-66 -38 71 -166 0
-66 -39 72 -166 0
-66 -40 73 -166 0
-66 -41 74 -166 0
-66 -42 75 -166 0
-66 -43 76 -166 0
-67 -44 66 -166 0
-67 -45 68 -166 0
-67 -47 69 -166 0
-67 -48 70 -166 0
-67 -49 71 -166 0
-67 -50 72 -166 0
-67 -51 73 -166 0
-67 -52 74 -166 0
-67 -53 75 -166 0
-67 -54 76 -166 0
-68 -55 66 -166 0
-68 -56 67 -166 0
-68 -58 69 -166 0
-68 -59 70 -166 0
-68 -60 71 -166 0
-68 -61 72 -166 0
-68 -62 73 -166 0
-68 -63 74 -166 0
-68 -64 75 -166 0
-68 -65 76 -166 0
-69 -77 66 -166 0
-69 -78 67 -166 0
-69 -79 68 -166 0
-69 -81 70 -166 0
-69 -82 71 -166 0
-69 -83 72 -166 0
-69 -84 73 -166 0
-69 -85 74 -166 0
-69 -86 75 -166 0
-69 -87 76 -166 0
-70 -88 66 -166 0
-70 -89 67 -166 0
-70 -90 68 -166 0
-70 -92 69 -166 0
-70 -93 71 -166 0
-70 -94 72 -166 0
-70 -95 73 -166 0
-70 -96 74 -166 0
-70 -97 75 -166 0
-70 -98 76 -166 0
-71 -99 66 -166 0
-71 -100 67 -166 0
-71 -101 68 -166 0
-71 -103 69 -166 0
-71 -104 70 -166 0
-71 -105 72 -166 0
-71 -106 73 -166 0
-71 -107 74 -166 0
-71 -108 75 -166 0
-71 -109 76 -166 0
-72 -110 66 -166 0
-72 -111 67 -166 0
-72 -112 68 -166 0
-72 -114 69 -166 0
-72 -115 70 -166 0
-72 -116 71 -166 0
-72 -117 73 -166 0
-72 -118 74 -166 0
-72 -119 75 -166 0
-72 -120 76 -166 0
-73 -121 66 -166 0
-73 -122 67 -166 0
-73 -123 68 -166 0
-73 -125 69 -166 0
-73 -126 70 -166 0
-73 -127 71 -166 0
-73 -128 72 -166 0
-73 -129 74 -166 0
-73 -130 75 -166 0
-73 -131 76 -166 0
-74 -132 66 -166 0
-74 -133 67 -166 0
-74 -134 68 -166 0
-74 -136 69 -166 0
-74 -137 70 -166 0
-74 -138 71 -166 0
-74 -139 72 -166 0
-74 -140 73 -166 0
-74 -141 75 -166 0
-74 -142 76 -166 0
-75 -143 66 -166 0
-75 -144 67 -166 0
-75 -145 68 -166 0
-75 -147 69 -166 0
-75 -148 70 -166 0
-75 -149 71 -166 0
-75 -150 72 -166 0
-75 -151 73 -166 0
-75 -152 74 -166 0
-75 -153 76 -166 0
-76 -154 66 -166 0
-76 -155 67 -166 0
-76 -156 68 -166 0
-76 -158 69 -166 0
-76 -159 70 -166 0
-76 -160 71 -166 0
-76 -161 72 -166 0
-76 -162 73 -166 0
-76 -163 74 -166 0
-76 -164 75 -166 0
-77 -33 78 -166 0
-77 -34 79 -166 0
-77 -35 80 -166 0
-77 -37 81 -166 0
-77 -38 82 -166 0
-77 -39 83 -166 0
-77 -40 84 -166 0
-77 -41 85 -166 0
-77 -42 86 -166 0
-77 -43 87 -166 0
-78 -44 77 -166 0
-78 -45 79 -166 0
-78 -46 80 -166 0
-78 -48 81 -166 0
-78 -49 82 -166 0
-78 -50 83 -166 0
-78 -51 84 -166 0
-78 -52 85 -166 0
-78 -53 86 -166 0
-78 -54 87 -166 0
-79 -55 77 -166 0
-79 -56 78 -166 0
-79 -57 80 -166 0
-79 -59 81 -166 0
-79 -60 82 -166 0
-79 -61 83 -166 0
-79 -62 84 -166 0
-79 -63 85 -166 0
-79 -64 86 -166 0
-79 -65 87 -166 0
-80 -66 77 -166 0
-80 -67 78 -166 0
-80 -68 79 -166 0
-80 -70 81 -166 0
-80 -71 82 -166 0
-80 -72 83 -166 0
-80 -73 84 -166 0
-80 -74 85 -166 0
-80 -75 86 -166 0
-80 -76 87 -166 0
-81 -88 77 -166 0
-81 -89 78 -166 0
-81 -90 79 -166 0
-81 -91 80 -166 0
-81 -93 82 -166 0
-81 -94 83 -166 0
-81 -95 84 -166 0
-81 -96 85 -166 0
-81 -97 86 -166 0
-81 -98 87 -166 0
-82 -99 77 -166 0
-82 -100 78 -166 0
-82 -101 79 -166 0
-82 -102 80 -166 0
-82 -104 81 -166 0
-82 -105 83 -166 0
-82 -106 84 -166 0
-82 -107 85 -166 0
-82 -108 86 -166 0
-82 -109 87 -166 0
-83 -110 77 -166 0
-83 -111 78 -166 0
-83 -112 79 -166 0
-83 -113 80 -166 0
-83 -115 81 -166 0
-83 -116 82 -166 0
-83 -117 84 -166 0
-83 -118 85 -166 0
-83 -119 86 -166 0
-83 -120 87 -166 0
-84 -121 77 -166 0
-84 -122 78 -166 0
-84 -123 79 -166 0
-84 -124 80 -166 0
-84 -126 81 -166 0
-84 -127 82 -166 0
-84 -128 83 -166 0
-84 -129 85 -166 0
-84 -130 86 -166 0
-84 -131 87 -166 0
-85 -132 77 -166 0
-85 -133 78 -166 0
-85 -134 79 -166 0
-85 -135 80 -166 0
-85 -137 81 -166 0
-85 -138 82 -166 0
-85 -139 83 -166 0
-85 -140 84 -166 0
-85 -141 86 -166 0
-85 -142 87 -166 0
-86 -143 77 -166 0
-86 -144 78 -166 0
-86 -145 79 -166 0
-86 -146 80 -166 0
-86 -148 81 -166 0
-86 -149 82 -166 0
-86 -150 83 -166 0
-86 -151 84 -166 0
-86 -152 85 -166 0
-86 -153 87 -166 0
-87 -154 77 -166 0
-87 -155 78 -166 0
-87 -156 79 -166 0
-87 -157 80 -166 0
-87 -159 81 -166 0
-87 -160 82 -166 0
-87 -161 83 -166 0
-87 -162 84 -166 0
-87 -163 85 -166 0
-87 -164 86 -166 0
-88 -33 89 -166 0
-88 -34 90 -166 0
-88 -35 91 -166 0
-88 -36 92 -166 0
-88 -38 93 -166 0
-88 -39 94 -166 0
-88 -40 95 -166 0
-88 -41 96 -166 0
-88 -42 97 -166 0
-88 -43 98 -166 0
-89 -44 88 -166 0
-89 -45 90 -166 0
-89 -46 91 -166 0
-89 -47 92 -166 0
-89 -49 93 -166 0
-89 -50 94 -166 0
-89 -51 95 -166 0
-89 -52 96 -166 0
-89 -53 97 -166 0
-89 -54 98 -166 0
-90 -55 88 -166 0
-90 -56 89 -166 0
-90 -57 91 -166 0
-90 -58 92 -166 0
-90 -60 93 -166 0
-90 -61 94 -166 0
-90 -62 95 -166 0
-90 -63 96 -166 0
-90 -64 97 -166 0
-90 -65 98 -166 0
-91 -66 88 -166 0
-91 -67 89 -166 0
-91 -68 90 -166 0
-91 -69 92 -166 0
-91 -71 93 -166 0
-91 -72 94 -166 0
-91 -73 95 -166 0
-91 -74 96 -166 0
-91 -75 97 -166 0
-91 -76 98 -166 0
-92 -77 88 -166 0
-92 -78 89 -166 0
-92 -79 90 -166 0
-92 -80 91 -166 0
-92 -82 93 -166 0
-92 -83 94 -166 0
-92 -84 95 -166 0
-92 -85 96 -166 0
-92 -86 97 -166 0
-92 -87 98 -166 0
-93 -99 88 -166 0
-93 -100 89 -166 0
-93 -101 90 -166 0
-93 -102 91 -166 0
-93 -103 92 -166 0
-93 -105 94 -166 0
-93 -106 95 -166 0
-93 -107 96 -166 0
-93 -108 97 -166 0
-93 -109 98 -166 0
-94 -110 88 -166 0
-94 -111 89 -166 0
-94 -112 90 -166 0
-94 -113 91 -166 0
-94 -114 92 -166 0
-94 -116 93 -166 0
-94 -117 95 -166 0
-94 -118 96 -166 0
-94 -119 97 -166 0
-94 -120 98 -166 0
-95 -121 88 -166 0
-95 -122 89 -166 0
-95 -123 90 -166 0
-95 -124 91 -166 0
-95 -125 92 -166 0
-95 -127 93 -166 0
-95 -128 94 -166 0
-95 -129 96 -166 0
-95 -130 97 -166 0
-95 -131 98 -166 0
-96 -132 88 -166 0
-96 -133 89 -166 0
-96 -134 90 -166 0
-96 -135 91 -166 0
-96 -136 92 -166 0
-96 -138 93 -166 0
-96 -139 94 -166 0
-96 -140 95 -166 0
-96 -141 97 -166 0
-96 -142 98 -166 0
-97 -143 88 -166 0
-97 -144 89 -166 0
-97 -145 90 -166 0
-97 -146 91 -166 0
-97 -147 92 -166 0
-97 -149 93 -166 0
-97 -150 94 -166 0
-97 -151 95 -166 0
-97 -152 96 -166 0
-97 -153 98 -166 0
-98 -154 88 -166 0
-98 -155 89 -166 0
-98 -156 90 -166 0
-98 -157 91 -166 0
-98 -158 92 -166 0
-98 -160 93 -166 0
-98 -161 94 -166 0
-98 -162 95 -166 0
-98 -163 96 -166 0
-98 -164 97 -166 0
-99 -33 100 -166 0
-99 -34 101 -166 0
-99 -35 102 -166 0
-99 -36 103 -166 0
-99 -37 104 -166 0
-99 -39 105 -166 0
-99 -40 106 -166 0
-99 -41 107 -166 0
-99 -42 108 -166 0
-99 -43 109 -166 0
-100 -44 99 -166 0
-100 -45 101 -166 0
-100 -46 102 -166 0
-100 -47 103 -166 0
-100 -48 104 -166 0
-100 -50 105 -166 0
-100 -51 106 -166 0
-100 -52 107 -166 0
-100 -53 108 -166 0
-100 -54 109 -166 0
-101 -55 99 -166 0
-101 -56 100 -166 0
-101 -57 102 -166 0
-101 -58 103 -166 0
-101 -59 104 -166 0
-101 -61 105 -166 0
-101 -62 106 -166 0
-101 -63 107 -166 0
-101 -64 108 -166 0
-101 -65 109 -166 0
-102 -66 99 -166 0
-102 -67 100 -166 0
-102 -68 101 -166 0
-102 -69 103 -166 0
-102 -70 104 -166 0
-102 -72 105 -166 0
-102 -73 106 -166 0
-102 -74 107 -166 0
-102 -75 108 -166 0
-102 -76 109 -166 0
-103 -77 99 -166 0
-103 -78 100 -166 0
-103 -79 101 -166 0
-103 -80 102 -166 0
-103 -81 104 -166 0
-103 -83 105 -166 0
-103 -84 106 -166 0
-103 -85 107 -166 0
-103 -86 108 -166 0
-103 -87 109 -166 0
-104 -88 99 -166 0
-104 -89 100 -166 0
-104 -90 101 -166 0
-104 -91 102 -166 0
-104 -92 103 -166 0
-104 -94 105 -166 0
-104 -95 106 -166 0
-104 -96 107 -166 0
-104 -97 108 -166 0
-104 -98 109 -166 0
-105 -110 99 -166 0
-105 -111 100 -166 0
-105 -112 101 -166 0
-105 -113 102 -166 0
-105 -114 103 -166 0
-105 -115 104 -166 0
-105 -117 106 -166 0
-105 -118 107 -166 0
-105 -119 108 -166 0
-105 -120 109 -166 0
-106 -121 99 -166 0
-106 -122 100 -166 0
-106 -123 101 -166 0
-106 -124 102 -166 0
-106 -125 103 -166 0
-106 -126 104 -166 0
-106 -128 105 -166 0
-106 -129 107 -166 0
-106 -130 108 -166 0
-106 -131 109 -166 0
-107 -132 99 -166 0
-107 -133 100 -166 0
-107 -134 101 -166 0
-107 -135 102 -166 0
-107 -136 103 -166 0
-107 -137 104 -166 0
-107 -139 105 -166 0
-107 -140 106 -166 0
-107 -141 108 -166 0
-107 -142 109 -166 0
-108 -143 99 -166 0
-108 -144 100 -166 0
-108 -145 101 -166 0
-108 -146 102 -166 0
-108 -147 103 -166 0
-108 -148 104 -166 0
-108 -150 105 -166 0
-108 -151 106 -166 0
-108 -152 107 -166 0
-108 -153 109 -166 0
-109 -154 99 -166 0
-109 -155 100 -166 0
-109 -156 101 -166 0
-109 -157 102 -166 0
-109 -158 103 -166 0
-109 -159 104 -166 0
-109 -161 105 -166 0
-109 -162 106 -166 0
-109 -163 107 -166 0
-109 -164 108 -166 0
-110 -33 111 -166 0
-110 -34 112 -166 0
-110 -35 113 -166 0
-110 -36 114 -166 0
-110 -37 115 -166 0
-110 -38 116 -166 0
-110 -40 117 -166 0
-110 -41 118 -166 0
-110 -42 119 -166 0
-110 -43 120 -166 0
-111 -44 110 -166 0
-111 -45 112 -166 0
-111 -46 113 -166 0
-111 -47 114 -166 0
-111 -48 115 -166 0
-111 -49 116 -166 0
-111 -51 117 -166 0
-111 -52 118 -166 0
-111 -53 119 -166 0
-111 -54 120 -166 0
-112 -55 110 -166 0
-112 -56 111 -166 0
-112 -57 113 -166 0
-112 -58 114 -166 0
-112 -59 115 -166 0
-112 -60 116 -166 0
-112 -62 117 -166 0
-112 -63 118 -166 0
-112 -64 119 -166 0
-112 -65 120 -166 0
-113 -66 110 -166 0
-113 -67 111 -166 0
-113 -68 112 -166 0
-113 -69 114 -166 0
-113 -70 115 -166 0
-113 -71 116 -166 0
-113 -73 117 -166 0
-113 -74 118 -166 0
-113 -75 119 -166 0
-113 -76 120 -166 0
-114 -77 110 -166 0
-114 -78 111 -166 0
-114 -79 112 -166 0
-114 -80 113 -166 0
-114 -81 115 -166 0
-114 -82 116 -166 0
-114 -84 117 -166 0
-114 -85 118 -166 0
-114 -86 119 -166 0
-114 -87 120 -166 0
-115 -88 110 -166 0
-115 -89 111 -166 0
-115 -90 112 -166 0
-115 -91 113 -166 0
-115 -92 114 -166 0
-115 -93 116 -166 0
-115 -95 117 -166 0
-115 -96 118 -166 0
-115 -97 119 -166 0
-115 -98 120 -166 0
-116 -99 110 -166 0
-116 -100 111 -166 0
-116 -101 112 -166 0
-116 -102 113 -166 0
-116 -103 114 -166 0
-116 -104 115 -166 0
-116 -106 117 -166 0
-116 -107 118 -166 0
-116 -108 119 -166 0
-116 -109 120 -166 0
-117 -121 110 -166 0
-117 -122 111 -166 0
-117 -123 112 -166 0
-117 -124 113 -166 0
-117 -125 114 -166 0
-117 -126 115 -166 0
-117 -127 116 -166 0
-117 -129 118 -166 0
-117 -130 119 -166 0
-117 -131 120 -166 0
-118 -132 110 -166 0
-118 -133 111 -166 0
-118 -134 112 -166 0
-118 -135 113 -166 0
-118 -136 114 -166 0
-118 -137 115 -166 0
-118 -138 116 -166 0
-118 -140 117 -166 0
-118 -141 119 -166 0
-118 -142 120 -166 0
-119 -143 110 -166 0
-119 -144 111 -166 0
-119 -145 112 -166 0
-119 -146 113 -166 0
-119 -147 114 -166 0
-119 -148 115 -166 0
-119 -149 116 -166 0
-119 -151 117 -166 0
-119 -152 118 -166 0
-119 -153 120 -166 0
-120 -154 110 -166 0
-120 -155 111 -166 0
-120 -156 112 -166 0
-120 -157 113 -166 0
-120 -158 114 -166 0
-120 -159 115 -166 0
-120 -160 116 -166 0
-120 -162 117 -166 0
-120 -163 118 -166 0
-120 -164 119 -166 0
-121 -33 122 -166 0
-121 -34 123 -166 0
-121 -35 124 -166 0
-121 -36 125 -166 0
-121 -37 126 -166 0
-121 -38 127 -166 0
-121 -39 128 -166 0
-121 -41 129 -166 0
-121 -42 130 -166 0
-121 -43 131 -166 0
-122 -44 121 -166 0
-122 -45 123 -166 0
-122 -46 124 -166 0
-122 -47 125 -166 0
-122 -48 126 -166 0
-122 -49 127 -166 0
-122 -50 128 -166 0
-122 -52 129 -166 0
-122 -53 130 -166 0
-122 -54 131 -166 0
-123 -55 121 -166 0
-123 -56 122 -166 0
-123 -57 124 -166 0
-123 -58 125 -166 0
-123 -59 126 -166 0
-123 -60 127 -166 0
-123 -61 128 -166 0
-123 -63 129 -166 0
-123 -64 130 -166 0
-123 -65 131 -166 0
-124 -66 121 -166 0
-124 -67 122 -166 0
-124 -68 123 -166 0
-124 -69 125 -166 0
-124 -70 126 -166 0
-124 -71 127 -166 0
-124 -72 128 -166 0
-124 -74 129 -166 0
-124 -75 130 -166 0
-124 -76 131 -166 0
-125 -77 121 -166 0
-125 -78 122 -166 0
-125 -79 123 -166 0
-125 -80 124 -166 0
-125 -81 126 -166 0
-125 -82 127 -166 0
-125 -83 128 -166 0
-125 -85 129 -166 0
-125 -86 130 -166 0
-125 -87 131 -166 0
-126 -88 121 -166 0
-126 -89 122 -166 0
-126 -90 123 -166 0
-126 -91 124 -166 0
-126 -92 125 -166 0
-126 -93 127 -166 0
-126 -94 128 -166 0
-126 -96 129 -166 0
-126 -97 130 -166 0
-126 -98 131 -166 0
-127 -99 121 -166 0
-127 -100 122 -166 0
-127 -101 123 -166 0
-127 -102 124 -166 0
-127 -103 125 -166 0
-127 -104 126 -166 0
-127 -105 128 -166 0
-127 -107 129 -166 0
-127 -108 130 -166 0
-127 -109 131 -166 0
-128 -110 121 -166 0
-128 -111 122 -166 0
-128 -112 123 -166 0
-128 -113 124 -166 0
-128 -114 125 -166 0
-128 -115 126 -166 0
-128 -116 127 -166 0
-128 -118 129 -166 0
-128 -119 130 -166 0
-128 -120 131 -166 0
-129 -132 121 -166 0
-129 -133 122 -166 0
-129 -134 123 -166 0
-129 -135 124 -166 0
-129 -136 125 -166 0
-129 -137 126 -166 0
-129 -138 127 -166 0
-129 -139 128 -166 0
-129 -141 130 -166 0
-129 -142 131 -166 0
-130 -143 121 -166 0
-130 -144 122 -166 0
-130 -145 123 -166 0
-130 -146 124 -166 0
-130 -147 125 -166 0
-130 -148 126 -166 0
-130 -149 127 -166 0
-130 -150 128 -166 0
-130 -152 129 -166 0
-130 -153 131 -166 0
-131 -154 121 -166 0
-131 -155 122 -166 0
-131 -156 123 -166 0
-131 -157 124 -166 0
-131 -158 125 -166 0
-131 -159 126 -166 0
-131 -160 127 -166 0
-131 -161 128 -166 0
-131 -163 129 -166 0
-131 -164 130 -166 0
-132 -33 133 -166 0
-132 -34 134 -166 0
-132 -35 135 -166 0
-132 -36 136 -166 0
-132 -37 137 -166 0
-132 -38 138 -166 0
-132 -39 139 -166 0
-132 -40 140 -166 0
-132 -42 141 -166 0
-132 -43 142 -166 0
-133 -44 132 -166 0
-133 -45 134 -166 0
-133 -46 135 -166 0
-133 -47 136 -166 0
-133 -48 137 -166 0
-133 -49 138 -166 0
-133 -50 139 -166 0
-133 -51 140 -166 0
-133 -53 141 -166 0
-133 -54 142 -166 0
-134 -55 132 -166 0
-134 -56 133 -166 0
-134 -57 135 -166 0
-134 -58 136 -166 0
-134 -59 137 -166 0
-134 -60 138 -166 0
-134 -61 139 -166 0
-134 -62 140 -166 0
-134 -64 141 -166 0
-134 -65 142 -166 0
-135 -66 132 -166 0
-135 -67 133 -166 0
-135 -68 134 -166 0
-135 -69 136 -166 0
-135 -70 137 -166 0
-135 -71 138 -166 0
-135 -72 139 -166 0
-135 -73 140 -166 0
-135 -75 141 -166 0
-135 -76 142 -166 0
-136 -77 132 -166 0
-136 -78 133 -166 0
-136 -79 134 -166 0
-136 -80 135 -166 0
-136 -81 137 -166 0
-136 -82 138 -166 0
-136 -83 139 -166 0
-136 -84 140 -166 0
-136 -86 141 -166 0
-136 -87 142 -166 0
-137 -88 132 -166 0
-137 -89 133 -166 0
-137 -90 134 -166 0
-137 -91 135 -166 0
-137 -92 136 -166 0
-137 -93 138 -166 0
-137 -94 139 -166 0
-137 -95 140 -166 0
-137 -97 141 -166 0
-137 -98 142 -166 0
-138 -99 132 -166 0
-138 -100 133 -166 0
-138 -101 134 -166 0
-138 -102 135 -166 0
-138 -103 136 -166 0
-138 -104 137 -166 0
-138 -105 139 -166 0
-138 -106 140 -166 0
-138 -108 141 -166 0
-138 -109 142 -166 0
-139 -110 132 -166 0
-139 -111 133 -166 0
-139 -112 134 -166 0
-139 -113 135 -166 0
-139 -114 136 -166 0
-139 -115 137 -166 0
-139 -116 138 -166 0
-139 -117 140 -166 0
-139 -119 141 -166 0
-139 -120 142 -166 0
-140 -121 132 -166 0
-140 -122 133 -166 0
-140 -123 134 -166 0
-140 -124 135 -166 0
-140 -125 136 -166 0
-140 -126 137 -166 0
-140 -127 138 -166 0
-140 -128 139 -166 0
-140 -130 141 -166 0
-140 -131 142 -166 0
-141 -143 132 -166 0
-141 -144 133 -166 0
-141 -145 134 -166 0
-141 -146 135 -166 0
-141 -147 136 -166 0
-141 -148 137 -166 0
-141 -149 138 -166 0
-141 -150 139 -166 0
-141 -151 140 -166 0
-141 -153 142 -166 0
-142 -154 132 -166 0
-142 -155 133 -166 0
-142 -156 134 -166 0
-142 -157 135 -166 0
-142 -158 136 -166 0
-142 -159 137 -166 0
-142 -160 138 -166 0
-142 -161 139 -166 0
-142 -162 140 -166 0
-142 -164 141 -166 0
-143 -33 144 -166 0
-143 -34 145 -166 0
-143 -35 146 -166 0
-143 -36 147 -166 0
-143 -37 148 -166 0
-143 -38 149 -166 0
-143 -39 150 -166 0
-143 -40 151 -166 0
-143 -41 152 -166 0
-143 -43 153 -166 0
-144 -44 143 -166 0
-144 -45 145 -166 0
-144 -46 146 -166 0
-144 -47 147 -166 0
-144 -48 148 -166 0
-144 -49 149 -166 0
-144 -50 150 -166 0
-144 -51 151 -166 0
-144 -52 152 -166 0
-144 -54 153 -166 0
-145 -55 143 -166 0
-145 -56 144 -166 0
-145 -57 146 -166 0
-145 -58 147 -166 0
-145 -59 148 -166 0
-145 -60 149 -166 0
-145 -61 150 -166 0
-145 -62 151 -166 0
-145 -63 152 -166 0
-145 -65 153 -166 0
-146 -66 143 -166 0
-146 -67 144 -166 0
-146 -68 145 -166 0
-146 -69 147 -166 0
-146 -70 148 -166 0
-146 -71 149 -166 0
-146 -72 150 -166 0
-146 -73 151 -166 0
-146 -74 152 -166 0
-146 -76 153 -166 0
-147 -77 143 -166 0
-147 -78 144 -166 0
-147 -79 145 -166 0
-147 -80 146 -166 0
-147 -81 148 -166 0
-147 -82 149 -166 0
-147 -83 150 -166 0
-147 -84 151 -166 0
-147 -85 152 -166 0
-147 -87 153 -166 0
-148 -88 143 -166 0
-148 -89 144 -166 0
-148 -90 145 -166 0
-148 -91 146 -166 0
-148 -92 147 -166 0
-148 -93 149 -166 0
-148 -94 150 -166 0
-148 -95 151 -166 0
-148 -96 152 -166 0
-148 -98 153 -166 0
-149 -99 143 -166 0
-149 -100 144 -166 0
-149 -101 145 -166 0
-149 -102 146 -166 0
-149 -103 147 -166 0
-149 -104 148 -166 0
-149 -105 150 -166 0
-149 -106 151 -166 0
-149 -107 152 -166 0
-149 -109 153 -166 0
-150 -110 143 -166 0
-150 -111 144 -166 0
-150 -112 145 -166 0
-150 -113 146 -166 0
-150 -114 147 -166 0
-150 -115 148 -166 0
-150 -116 149 -166 0
-150 -117 151 -166 0
-150 -118 152 -166 0
-150 -120 153 -166 0
-151 -121 143 -166 0
-151 -122 144 -166 0
-151 -123 145 -166 0
-151 -124 146 -166 0
-151 -125 147 -166 0
-151 -126 148 -166 0
-151 -127 149 -166 0
-151 -128 150 -166 0
-151 -129 152 -166 0
-151 -131 153 -166 0
-152 -132 143 -166 0
-152 -133 144 -166 0
-152 -134 145 -166 0
-152 -135 146 -166 0
-152 -136 147 -166 0
-152 -137 148 -166 0
-152 -138 149 -166 0
-152 -139 150 -166 0
-152 -140 151 -166 0
-152 -142 153 -166 0
-153 -154 143 -166 0
-153 -155 144 -166 0
-153 -156 145 -166 0
-153 -157 146 -166 0
-153 -158 147 -166 0
-153 -159 148 -166 0
-153 -160 149 -166 0
-153 -161 150 -166 0
-153 -162 151 -166 0
-153 -163 152 -166 0
-154 -33 155 -166 0
-154 -34 156 -166 0
-154 -35 157 -166 0
-154 -36 158 -166 0
-154 -37 159 -166 0
-154 -38 160 -166 0
-154 -39 161 -166 0
-154 -40 162 -166 0
-154 -41 163 -166 0
-154 -42 164 -166 0
-155 -44 154 -166 0
-155 -45 156 -166 0
-155 -46 157 -166 0
-155 -47 158 -166 0
-155 -48 159 -166 0
-155 -49 160 -166 0
-155 -50 161 -166 0
-155 -51 162 -166 0
-155 -52 163 -166 0
-155 -53 164 -166 0
-156 -55 154 -166 0
-156 -56 155 -166 0
-156 -57 157 -166 0
-156 -58 158 -166 0
-156 -59 159 -166 0
-156 -60 160 -166 0
-156 -61 161 -166 0
-156 -62 162 -166 0
-156 -63 163 -166 0
-156 -64 164 -166 0
-157 -66 154 -166 0
-157 -67 155 -166 0
-157 -68 156 -166 0
-157 -69 158 -166 0
-157 -70 159 -166 0
-157 -71 160 -166 0
-157 -72 161 -166 0
-157 -73 162 -166 0
-157 -74 163 -166 0
-157 -75 164 -166 0
-158 -77 154 -166 0
-158 -78 155 -166 0
-158 -79 156 -166 0
-158 -80 157 -166 0
-158 -81 159 -166 0
-158 -82 160 -166 0
-158 -83 161 -166 0
-158 -84 162 -166 0
-158 -85 163 -166 0
-158 -86 164 -166 0
-159 -88 154 -166 0
-159 -89 155 -166 0
-159 -90 156 -166 0
-159 -91 157 -166 0
-159 -92 158 -166 0
-159 -93 160 -166 0
-159 -94 161 -166 0
-159 -95 162 -166 0
-159 -96 163 -166 0
-159 -97 164 -166 0
-160 -99 154 -166 0
-160 -100 155 -166 0
-160 -101 156 -166 0
-160 -102 157 -166 0
-160 -103 158 -166 0
-160 -104 159 -166 0
-160 -105 161 -166 0
-160 -106 162 -166 0
-160 -107 163 -166 0
-160 -108 164 -166 0
-161 -110 154 -166 0
-161 -111 155 -166 0
-161 -112 156 -166 0
-161 -113 157 -166 0
-161 -114 158 -166 0
-161 -115 159 -166 0
-161 -116 160 -166 0
-161 -117 162 -166 0
-161 -118 163 -166 0
-161 -119 164 -166 0
-162 -121 154 -166 0
-162 -122 155 -166 0
-162 -123 156 -166 0
-162 -124 157 -166 0
-162 -125 158 -166 0
-162 -126 159 -166 0
-162 -127 160 -166 0
-162 -128 161 -166 0
-162 -129 163 -166 0
-162 -130 164 -166 0
-163 -132 154 -166 0
-163 -133 155 -166 0
-163 -134 156 -166 0
-163 -135 157 -166 0
-163 -136 158 -166 0
-163 -137 159 -166 0
-163 -138 160 -166 0
-163 -139 161 -166 0
-163 -140 162 -166 0
-163 -141 164 -166 0
-164 -143 154 -166 0
-164 -144 155 -166 0
-164 -145 156 -166 0
-164 -146 157 -166 0
-164 -147 158 -166 0
-164 -148 159 -166 0
-164 -149 160 -166 0
-164 -150 161 -166 0
-164 -151 162 -166 0
-164 -152 163 -166 0
44 55 66 77 88 99 110 121 132 143 154 -166 0
33 56 67 78 89 100 111 122 133 144 155 -166 0
34 45 68 79 90 101 112 123 134 145 156 -166 0
35 46 57 80 91 102 113 124 135 146 157 -166 0
36 47 58 69 92 103 114 125 136 147 158 -166 0
37 48 59 70 81 104 115 126 137 148 159 -166 0
38 49 60 71 82 93 116 127 138 149 160 -166 0
39 50 61 72 83 94 105 128 139 150 161 -166 0
40 51 62 73 84 95 106 117 140 151 162 -166 0
41 52 63 74 85 96 107 118 129 152 163 -166 0
42 53 64 75 86 97 108 119 130 141 164 -166 0
43 54 65 76 87 98 109 120 131 142 153 -166 0
165 166 0
